30
1 0 6
3 0 5
3 1 5
4 3 3
5 0 7
5 3 8
6 0 2
6 1 8
6 2 4
6 3 10
6 4 2
7 1 8
7 2 3
7 4 4
7 5 9
8 0 3
8 3 9
8 5 3
8 6 5
8 7 3
9 0 8
9 6 3
10 0 2
10 1 2
10 2 4
10 3 4
10 7 8
10 9 2
11 5 9
11 7 6
11 9 6
11 10 9
12 1 5
12 2 10
12 4 7
12 6 8
12 9 10
12 10 7
12 11 5
13 0 7
13 2 2
13 4 3
13 7 9
13 8 10
13 11 9
14 0 10
14 1 7
14 3 2
14 4 8
14 7 6
14 9 3
14 10 4
14 11 3
15 0 6
15 1 6
15 2 4
15 6 6
15 7 5
15 10 3
15 14 2
16 1 10
16 5 8
16 6 8
16 9 9
16 11 6
16 13 4
16 15 4
17 0 2
17 2 1
17 6 10
17 7 1
17 8 8
17 10 6
17 11 10
17 12 8
18 0 7
18 1 4
18 2 2
18 4 9
18 5 2
18 6 10
18 9 2
18 12 10
18 13 2
18 15 4
18 17 6
19 1 1
19 3 4
19 6 2
19 7 4
19 9 9
19 10 9
19 11 2
19 14 6
19 18 2
20 1 4
20 6 7
20 7 10
20 8 2
20 9 1
20 10 1
20 14 1
20 15 5
21 0 2
21 1 6
21 2 4
21 3 8
21 4 7
21 5 4
21 8 9
21 10 5
21 11 5
21 16 5
21 17 9
21 18 10
21 20 7
22 9 2
22 12 1
22 13 7
22 14 4
22 16 10
22 17 8
22 19 6
22 20 9
23 0 5
23 1 2
23 2 5
23 3 10
23 4 7
23 5 10
23 8 1
23 10 1
23 12 2
23 14 5
23 15 1
23 16 4
23 19 6
23 21 7
24 1 8
24 4 9
24 9 4
24 11 7
24 17 10
24 18 1
24 23 9
25 0 3
25 5 2
25 6 7
25 7 3
25 8 10
25 10 10
25 12 3
25 15 6
25 20 7
25 22 5
26 0 4
26 6 3
26 8 3
26 11 10
26 13 3
26 20 10
26 22 6
26 23 2
26 24 8
27 2 3
27 3 5
27 5 10
27 6 6
27 10 2
27 11 1
27 16 1
27 18 6
27 21 8
27 23 10
27 25 7
27 26 9
28 0 2
28 1 5
28 2 8
28 4 5
28 6 4
28 7 3
28 8 6
28 12 10
28 13 2
28 14 10
28 17 10
28 19 8
28 25 5
29 0 6
29 1 2
29 2 1
29 3 8
29 6 6
29 7 5
29 10 3
29 11 3
29 12 7
29 13 7
29 14 9
29 17 2
29 18 3
29 20 10
29 22 4
29 26 9
29 28 5
